(set-info :status unknown)
(declare-fun %Y () (_ BitVec 11))
(declare-fun C2 () (_ BitVec 11))
(declare-fun C1 () (_ BitVec 56))
(declare-fun %X () (_ BitVec 56))
(assert
 (let ((?x21499 (ite (and (distinct ((_ extract 2 2) C2) (_ bv0 1)) true) (_ bv2 56) (ite (and (distinct ((_ extract 1 1) C2) (_ bv0 1)) true) (_ bv1 56) (_ bv0 56)))))
 (let ((?x23123 (ite (and (distinct ((_ extract 5 5) C2) (_ bv0 1)) true) (_ bv5 56) (ite (and (distinct ((_ extract 4 4) C2) (_ bv0 1)) true) (_ bv4 56) (_ bv3 56)))))
 (let ((?x6770 (ite (and (distinct ((_ extract 8 8) C2) (_ bv0 1)) true) (_ bv8 56) (ite (and (distinct ((_ extract 7 7) C2) (_ bv0 1)) true) (_ bv7 56) (_ bv6 56)))))
 (let ((?x19363 (ite (and (distinct ((_ extract 10 9) C2) (_ bv0 2)) true) (ite (and (distinct ((_ extract 10 10) C2) (_ bv0 1)) true) (_ bv10 56) (_ bv9 56)) ?x6770)))
 (let ((?x10560 (ite (and (distinct ((_ extract 10 6) C2) (_ bv0 5)) true) ?x19363 (ite (and (distinct ((_ extract 5 3) C2) (_ bv0 3)) true) ?x23123 ?x21499))))
 (let ((?x12479 (ite (and (distinct ((_ extract 3 2) C1) (_ bv0 2)) true) (ite (and (distinct ((_ extract 3 3) C1) (_ bv0 1)) true) (_ bv3 56) (_ bv2 56)) (ite (and (distinct ((_ extract 1 1) C1) (_ bv0 1)) true) (_ bv1 56) (_ bv0 56)))))
 (let ((?x11027 (ite (and (distinct ((_ extract 6 6) C1) (_ bv0 1)) true) (_ bv6 56) (ite (and (distinct ((_ extract 5 5) C1) (_ bv0 1)) true) (_ bv5 56) (_ bv4 56)))))
 (let ((?x14064 (ite (and (distinct ((_ extract 10 9) C1) (_ bv0 2)) true) (ite (and (distinct ((_ extract 10 10) C1) (_ bv0 1)) true) (_ bv10 56) (_ bv9 56)) (ite (and (distinct ((_ extract 8 8) C1) (_ bv0 1)) true) (_ bv8 56) (_ bv7 56)))))
 (let ((?x24502 (ite (and (distinct ((_ extract 13 13) C1) (_ bv0 1)) true) (_ bv13 56) (ite (and (distinct ((_ extract 12 12) C1) (_ bv0 1)) true) (_ bv12 56) (_ bv11 56)))))
 (let ((?x6004 (ite (and (distinct ((_ extract 13 7) C1) (_ bv0 7)) true) (ite (and (distinct ((_ extract 13 11) C1) (_ bv0 3)) true) ?x24502 ?x14064) (ite (and (distinct ((_ extract 6 4) C1) (_ bv0 3)) true) ?x11027 ?x12479))))
 (let ((?x7261 (ite (and (distinct ((_ extract 17 16) C1) (_ bv0 2)) true) (ite (and (distinct ((_ extract 17 17) C1) (_ bv0 1)) true) (_ bv17 56) (_ bv16 56)) (ite (and (distinct ((_ extract 15 15) C1) (_ bv0 1)) true) (_ bv15 56) (_ bv14 56)))))
 (let ((?x15818 (ite (and (distinct ((_ extract 20 20) C1) (_ bv0 1)) true) (_ bv20 56) (ite (and (distinct ((_ extract 19 19) C1) (_ bv0 1)) true) (_ bv19 56) (_ bv18 56)))))
 (let ((?x511 (ite (and (distinct ((_ extract 24 23) C1) (_ bv0 2)) true) (ite (and (distinct ((_ extract 24 24) C1) (_ bv0 1)) true) (_ bv24 56) (_ bv23 56)) (ite (and (distinct ((_ extract 22 22) C1) (_ bv0 1)) true) (_ bv22 56) (_ bv21 56)))))
 (let ((?x281 (ite (and (distinct ((_ extract 27 27) C1) (_ bv0 1)) true) (_ bv27 56) (ite (and (distinct ((_ extract 26 26) C1) (_ bv0 1)) true) (_ bv26 56) (_ bv25 56)))))
 (let ((?x23346 (ite (and (distinct ((_ extract 27 21) C1) (_ bv0 7)) true) (ite (and (distinct ((_ extract 27 25) C1) (_ bv0 3)) true) ?x281 ?x511) (ite (and (distinct ((_ extract 20 18) C1) (_ bv0 3)) true) ?x15818 ?x7261))))
 (let ((?x5987 (ite (and (distinct ((_ extract 31 30) C1) (_ bv0 2)) true) (ite (and (distinct ((_ extract 31 31) C1) (_ bv0 1)) true) (_ bv31 56) (_ bv30 56)) (ite (and (distinct ((_ extract 29 29) C1) (_ bv0 1)) true) (_ bv29 56) (_ bv28 56)))))
 (let ((?x5278 (ite (and (distinct ((_ extract 34 34) C1) (_ bv0 1)) true) (_ bv34 56) (ite (and (distinct ((_ extract 33 33) C1) (_ bv0 1)) true) (_ bv33 56) (_ bv32 56)))))
 (let ((?x18533 (ite (and (distinct ((_ extract 38 37) C1) (_ bv0 2)) true) (ite (and (distinct ((_ extract 38 38) C1) (_ bv0 1)) true) (_ bv38 56) (_ bv37 56)) (ite (and (distinct ((_ extract 36 36) C1) (_ bv0 1)) true) (_ bv36 56) (_ bv35 56)))))
 (let ((?x11989 (ite (and (distinct ((_ extract 41 41) C1) (_ bv0 1)) true) (_ bv41 56) (ite (and (distinct ((_ extract 40 40) C1) (_ bv0 1)) true) (_ bv40 56) (_ bv39 56)))))
 (let ((?x6418 (ite (and (distinct ((_ extract 41 35) C1) (_ bv0 7)) true) (ite (and (distinct ((_ extract 41 39) C1) (_ bv0 3)) true) ?x11989 ?x18533) (ite (and (distinct ((_ extract 34 32) C1) (_ bv0 3)) true) ?x5278 ?x5987))))
 (let ((?x8936 (ite (and (distinct ((_ extract 45 44) C1) (_ bv0 2)) true) (ite (and (distinct ((_ extract 45 45) C1) (_ bv0 1)) true) (_ bv45 56) (_ bv44 56)) (ite (and (distinct ((_ extract 43 43) C1) (_ bv0 1)) true) (_ bv43 56) (_ bv42 56)))))
 (let ((?x22585 (ite (and (distinct ((_ extract 48 48) C1) (_ bv0 1)) true) (_ bv48 56) (ite (and (distinct ((_ extract 47 47) C1) (_ bv0 1)) true) (_ bv47 56) (_ bv46 56)))))
 (let ((?x11716 (ite (and (distinct ((_ extract 52 51) C1) (_ bv0 2)) true) (ite (and (distinct ((_ extract 52 52) C1) (_ bv0 1)) true) (_ bv52 56) (_ bv51 56)) (ite (and (distinct ((_ extract 50 50) C1) (_ bv0 1)) true) (_ bv50 56) (_ bv49 56)))))
 (let ((?x6185 (ite (and (distinct ((_ extract 55 55) C1) (_ bv0 1)) true) (_ bv55 56) (ite (and (distinct ((_ extract 54 54) C1) (_ bv0 1)) true) (_ bv54 56) (_ bv53 56)))))
 (let ((?x16842 (ite (and (distinct ((_ extract 55 49) C1) (_ bv0 7)) true) (ite (and (distinct ((_ extract 55 53) C1) (_ bv0 3)) true) ?x6185 ?x11716) (ite (and (distinct ((_ extract 48 46) C1) (_ bv0 3)) true) ?x22585 ?x8936))))
 (let ((?x8998 (ite (and (distinct ((_ extract 55 28) C1) (_ bv0 28)) true) (ite (and (distinct ((_ extract 55 42) C1) (_ bv0 14)) true) ?x16842 ?x6418) (ite (and (distinct ((_ extract 27 14) C1) (_ bv0 14)) true) ?x23346 ?x6004))))
 (let ((?x3766 (bvsub ?x8998 ?x10560)))
 (let ((?x18847 (bvand %X C1)))
 (let ((?x5877 (bvor %Y C2)))
 (let (($x19378 (and (distinct (ite (= (ite (and (distinct ?x18847 (_ bv0 56)) true) (_ bv1 1) (_ bv0 1)) (_ bv1 1)) %Y ?x5877) (bvor (bvxor ((_ extract 10 0) (bvlshr ?x18847 ?x3766)) C2) %Y)) true)))
 (let ((?x11313 (ite (and (distinct ((_ extract 3 2) C1) (_ bv0 2)) true) (ite (and (distinct ((_ extract 3 3) C1) (_ bv0 1)) true) (_ bv3 32) (_ bv2 32)) (ite (and (distinct ((_ extract 1 1) C1) (_ bv0 1)) true) (_ bv1 32) (_ bv0 32)))))
 (let ((?x16182 (ite (and (distinct ((_ extract 6 6) C1) (_ bv0 1)) true) (_ bv6 32) (ite (and (distinct ((_ extract 5 5) C1) (_ bv0 1)) true) (_ bv5 32) (_ bv4 32)))))
 (let ((?x11735 (ite (and (distinct ((_ extract 10 9) C1) (_ bv0 2)) true) (ite (and (distinct ((_ extract 10 10) C1) (_ bv0 1)) true) (_ bv10 32) (_ bv9 32)) (ite (and (distinct ((_ extract 8 8) C1) (_ bv0 1)) true) (_ bv8 32) (_ bv7 32)))))
 (let ((?x8274 (ite (and (distinct ((_ extract 13 13) C1) (_ bv0 1)) true) (_ bv13 32) (ite (and (distinct ((_ extract 12 12) C1) (_ bv0 1)) true) (_ bv12 32) (_ bv11 32)))))
 (let ((?x6006 (ite (and (distinct ((_ extract 13 7) C1) (_ bv0 7)) true) (ite (and (distinct ((_ extract 13 11) C1) (_ bv0 3)) true) ?x8274 ?x11735) (ite (and (distinct ((_ extract 6 4) C1) (_ bv0 3)) true) ?x16182 ?x11313))))
 (let ((?x20359 (ite (and (distinct ((_ extract 17 16) C1) (_ bv0 2)) true) (ite (and (distinct ((_ extract 17 17) C1) (_ bv0 1)) true) (_ bv17 32) (_ bv16 32)) (ite (and (distinct ((_ extract 15 15) C1) (_ bv0 1)) true) (_ bv15 32) (_ bv14 32)))))
 (let ((?x17698 (ite (and (distinct ((_ extract 20 20) C1) (_ bv0 1)) true) (_ bv20 32) (ite (and (distinct ((_ extract 19 19) C1) (_ bv0 1)) true) (_ bv19 32) (_ bv18 32)))))
 (let ((?x20966 (ite (and (distinct ((_ extract 24 23) C1) (_ bv0 2)) true) (ite (and (distinct ((_ extract 24 24) C1) (_ bv0 1)) true) (_ bv24 32) (_ bv23 32)) (ite (and (distinct ((_ extract 22 22) C1) (_ bv0 1)) true) (_ bv22 32) (_ bv21 32)))))
 (let ((?x11278 (ite (and (distinct ((_ extract 27 27) C1) (_ bv0 1)) true) (_ bv27 32) (ite (and (distinct ((_ extract 26 26) C1) (_ bv0 1)) true) (_ bv26 32) (_ bv25 32)))))
 (let ((?x9744 (ite (and (distinct ((_ extract 27 21) C1) (_ bv0 7)) true) (ite (and (distinct ((_ extract 27 25) C1) (_ bv0 3)) true) ?x11278 ?x20966) (ite (and (distinct ((_ extract 20 18) C1) (_ bv0 3)) true) ?x17698 ?x20359))))
 (let ((?x16551 (ite (and (distinct ((_ extract 31 30) C1) (_ bv0 2)) true) (ite (and (distinct ((_ extract 31 31) C1) (_ bv0 1)) true) (_ bv31 32) (_ bv30 32)) (ite (and (distinct ((_ extract 29 29) C1) (_ bv0 1)) true) (_ bv29 32) (_ bv28 32)))))
 (let ((?x14500 (ite (and (distinct ((_ extract 34 34) C1) (_ bv0 1)) true) (_ bv34 32) (ite (and (distinct ((_ extract 33 33) C1) (_ bv0 1)) true) (_ bv33 32) (_ bv32 32)))))
 (let ((?x13554 (ite (and (distinct ((_ extract 38 37) C1) (_ bv0 2)) true) (ite (and (distinct ((_ extract 38 38) C1) (_ bv0 1)) true) (_ bv38 32) (_ bv37 32)) (ite (and (distinct ((_ extract 36 36) C1) (_ bv0 1)) true) (_ bv36 32) (_ bv35 32)))))
 (let ((?x10603 (ite (and (distinct ((_ extract 41 41) C1) (_ bv0 1)) true) (_ bv41 32) (ite (and (distinct ((_ extract 40 40) C1) (_ bv0 1)) true) (_ bv40 32) (_ bv39 32)))))
 (let ((?x16229 (ite (and (distinct ((_ extract 41 35) C1) (_ bv0 7)) true) (ite (and (distinct ((_ extract 41 39) C1) (_ bv0 3)) true) ?x10603 ?x13554) (ite (and (distinct ((_ extract 34 32) C1) (_ bv0 3)) true) ?x14500 ?x16551))))
 (let ((?x1630 (ite (and (distinct ((_ extract 45 44) C1) (_ bv0 2)) true) (ite (and (distinct ((_ extract 45 45) C1) (_ bv0 1)) true) (_ bv45 32) (_ bv44 32)) (ite (and (distinct ((_ extract 43 43) C1) (_ bv0 1)) true) (_ bv43 32) (_ bv42 32)))))
 (let ((?x787 (ite (and (distinct ((_ extract 48 48) C1) (_ bv0 1)) true) (_ bv48 32) (ite (and (distinct ((_ extract 47 47) C1) (_ bv0 1)) true) (_ bv47 32) (_ bv46 32)))))
 (let ((?x1131 (ite (and (distinct ((_ extract 52 51) C1) (_ bv0 2)) true) (ite (and (distinct ((_ extract 52 52) C1) (_ bv0 1)) true) (_ bv52 32) (_ bv51 32)) (ite (and (distinct ((_ extract 50 50) C1) (_ bv0 1)) true) (_ bv50 32) (_ bv49 32)))))
 (let ((?x7427 (ite (and (distinct ((_ extract 55 55) C1) (_ bv0 1)) true) (_ bv55 32) (ite (and (distinct ((_ extract 54 54) C1) (_ bv0 1)) true) (_ bv54 32) (_ bv53 32)))))
 (let ((?x9108 (ite (and (distinct ((_ extract 55 49) C1) (_ bv0 7)) true) (ite (and (distinct ((_ extract 55 53) C1) (_ bv0 3)) true) ?x7427 ?x1131) (ite (and (distinct ((_ extract 48 46) C1) (_ bv0 3)) true) ?x787 ?x1630))))
 (let ((?x3505 (ite (and (distinct ((_ extract 55 28) C1) (_ bv0 28)) true) (ite (and (distinct ((_ extract 55 42) C1) (_ bv0 14)) true) ?x9108 ?x16229) (ite (and (distinct ((_ extract 27 14) C1) (_ bv0 14)) true) ?x9744 ?x6006))))
 (let ((?x3105 (ite (and (distinct ((_ extract 2 2) C2) (_ bv0 1)) true) (_ bv2 32) (ite (and (distinct ((_ extract 1 1) C2) (_ bv0 1)) true) (_ bv1 32) (_ bv0 32)))))
 (let ((?x24188 (ite (and (distinct ((_ extract 5 5) C2) (_ bv0 1)) true) (_ bv5 32) (ite (and (distinct ((_ extract 4 4) C2) (_ bv0 1)) true) (_ bv4 32) (_ bv3 32)))))
 (let ((?x11835 (ite (and (distinct ((_ extract 8 8) C2) (_ bv0 1)) true) (_ bv8 32) (ite (and (distinct ((_ extract 7 7) C2) (_ bv0 1)) true) (_ bv7 32) (_ bv6 32)))))
 (let ((?x1771 (ite (and (distinct ((_ extract 10 9) C2) (_ bv0 2)) true) (ite (and (distinct ((_ extract 10 10) C2) (_ bv0 1)) true) (_ bv10 32) (_ bv9 32)) ?x11835)))
 (let ((?x20910 (ite (and (distinct ((_ extract 10 6) C2) (_ bv0 5)) true) ?x1771 (ite (and (distinct ((_ extract 5 3) C2) (_ bv0 3)) true) ?x24188 ?x3105))))
 (and (and (and (distinct C1 (_ bv0 56)) true) (= (bvand C1 (bvsub C1 (_ bv1 56))) (_ bv0 56))) (and (and (distinct C2 (_ bv0 11)) true) (= (bvand C2 (bvsub C2 (_ bv1 11))) (_ bv0 11))) (bvslt ?x20910 ?x3505) $x19378))))))))))))))))))))))))))))))))))))))))))))))))))))))))))
(check-sat)
